NAME : pr1002.273882.tour
COMMENT : Cost = 91320_273882
COMMENT : Found by LKH [Keld Helsgaun] Thu Nov 16 14:48:55 2017
TYPE : TOUR
DIMENSION : 1004
TOUR_SECTION
1
70
69
68
67
66
65
59
58
60
61
62
64
63
23
25
24
32
33
34
35
36
37
314
331
330
329
328
327
324
325
326
315
316
313
312
311
317
318
319
320
323
322
321
294
293
295
296
289
290
291
292
399
401
400
398
397
396
395
384
383
385
382
380
381
379
378
369
377
370
371
372
373
376
375
374
638
637
636
635
634
633
992
625
626
628
627
612
613
614
615
616
732
731
730
736
737
739
740
741
742
743
745
744
738
735
734
733
749
750
748
746
747
755
754
753
752
751
792
791
790
789
756
757
758
759
1000
763
764
765
702
703
704
705
697
698
699
700
701
969
968
967
966
965
964
963
962
961
993
953
954
956
955
940
941
942
943
944
945
946
947
948
952
951
949
950
977
978
979
976
973
974
975
980
982
981
972
971
970
987
986
985
983
984
990
989
988
684
683
685
686
687
682
676
675
677
674
671
670
669
672
673
678
679
681
680
688
689
690
691
692
693
694
695
696
706
707
709
708
710
713
711
712
723
722
721
715
714
716
717
718
720
719
668
667
666
665
664
663
726
725
724
728
729
727
620
619
618
617
624
623
621
622
649
650
651
648
647
646
645
639
640
641
644
643
653
652
654
642
659
658
657
655
656
662
661
660
356
355
357
358
359
354
348
347
349
346
343
342
341
344
345
350
351
353
352
360
361
362
363
364
365
366
367
368
388
386
387
394
393
389
390
392
391
340
339
338
337
336
335
334
333
332
28
27
29
30
31
26
20
19
18
21
22
17
16
15
14
13
12
11
10
9
8
7
6
4
3
5
2
1004
76
136
137
138
139
140
141
142
143
144
148
149
150
151
152
165
166
169
168
167
163
162
160
161
172
171
170
173
174
175
176
177
178
179
180
181
182
183
184
185
159
158
157
156
164
155
154
153
995
252
251
250
249
247
248
260
261
262
246
245
244
243
242
186
241
240
238
239
189
188
187
195
196
202
996
203
204
206
205
207
210
209
208
200
199
198
201
197
194
193
192
190
191
237
236
235
233
234
221
222
223
220
219
218
217
211
212
216
215
214
213
498
499
500
489
488
490
491
492
484
485
486
487
513
512
511
510
509
508
507
502
501
504
503
506
505
999
531
532
534
533
535
536
537
538
832
833
834
831
829
830
835
836
837
838
839
840
841
815
814
813
812
820
819
818
816
817
828
827
826
541
539
540
545
544
543
542
548
547
546
519
518
520
521
517
516
522
525
526
527
528
529
530
524
523
515
514
569
570
568
567
566
565
564
563
561
562
549
550
551
552
553
556
557
593
594
595
596
597
599
600
601
602
598
588
576
575
578
577
581
582
583
584
587
586
585
449
448
450
451
452
453
454
455
456
457
430
429
428
461
462
463
464
466
465
460
458
459
473
474
475
476
472
471
477
478
479
480
470
469
468
467
273
272
274
275
276
277
278
279
280
281
282
283
301
302
303
304
113
111
110
112
114
115
116
117
119
118
106
105
104
103
994
107
108
109
85
84
83
81
80
74
1003
71
73
72
56
55
57
54
52
53
51
50
40
39
38
41
49
42
43
44
45
48
47
46
310
309
308
307
306
305
991
297
298
300
299
284
285
286
287
288
404
403
402
408
409
411
412
413
414
415
417
416
410
407
406
405
418
419
420
421
422
423
424
425
426
427
437
436
435
997
431
432
433
434
446
447
445
444
443
442
440
438
439
441
632
631
630
629
611
610
609
608
607
606
605
604
603
795
796
797
798
808
807
806
805
799
800
804
803
802
801
787
794
793
788
786
785
784
783
781
782
912
911
910
909
915
914
913
777
776
778
779
780
760
761
762
774
775
773
772
771
770
768
766
767
769
960
959
958
957
939
938
937
936
935
934
933
932
931
930
929
928
926
927
925
924
923
922
921
920
919
887
888
886
885
884
883
882
881
880
879
878
876
870
871
872
869
867
868
873
874
875
877
890
889
891
892
893
847
846
848
849
850
853
857
854
855
856
864
865
866
863
861
862
860
859
1002
858
852
851
843
844
845
895
894
896
897
842
898
899
900
901
902
918
917
916
904
903
905
906
907
908
1001
809
810
811
821
822
823
824
825
555
554
558
560
559
592
591
590
589
574
573
572
571
579
580
998
481
482
483
493
494
495
496
497
224
225
226
227
228
229
230
232
231
263
264
265
266
267
268
269
271
270
258
259
253
254
255
256
257
121
120
122
123
124
125
127
126
147
146
145
131
132
130
129
128
102
101
100
133
134
135
95
96
97
98
99
91
90
92
94
93
77
89
87
86
88
82
78
79
75
-1
EOF
